experiment/data/lkh-res/Vrp-Set-X-n233/Vrp-Set-X-n233-lkh/0.lkh1.vrp
NAME : 0
COMMENT : CVRP Instance
TYPE : CVRP
DIMENSION : 233
EDGE_WEIGHT_TYPE : EUC_2D
CAPACITY : 631
NODE_COORD_SECTION
1	50000	50000
2	81600	98100
3	34900	33800
4	2200	20500
5	38500	34400
6	91300	5400
7	52400	12300
8	23900	33500
9	15000	8400
10	8400	86000
11	64500	64700
12	50700	51600
13	15300	94000
14	42900	60200
15	59600	75900
16	77600	39900
17	94200	76700
18	87100	200
19	71400	95000
20	7200	40000
21	76500	31500
22	66600	79800
23	28700	85100
24	300	20100
25	7800	72400
26	89600	24000
27	5900	73500
28	25300	25100
29	3700	2200
30	97300	59900
31	72600	1300
32	8200	26200
33	200	63100
34	13300	65600
35	43500	74100
36	83400	71400
37	3700	86100
38	94600	21100
39	29000	11000
40	42300	35000
41	40600	41400
42	80400	58100
43	84600	95600
44	84900	68300
45	7900	88300
46	43300	9300
47	61000	25300
48	68600	48600
49	22900	24800
50	38200	59700
51	54400	61800
52	58500	30300
53	73200	38700
54	53300	95200
55	56300	80700
56	78000	94000
57	66500	56100
58	59100	53600
59	3500	21600
60	57700	96900
61	81100	92700
62	59200	74400
63	28000	38400
64	86600	22800
65	15300	2700
66	40100	48100
67	7200	48800
68	61000	32400
69	38100	30000
70	20900	67500
71	13900	84800
72	35400	12400
73	38600	57200
74	3600	76400
75	66000	42200
76	71900	26400
77	76100	56000
78	23100	20300
79	76900	31200
80	90500	64500
81	30400	37200
82	97000	96600
83	5100	25700
84	18900	93400
85	51600	600
86	75600	3600
87	4700	13900
88	42800	6100
89	10000	85300
90	92300	91900
91	75100	48000
92	55500	72600
93	46300	19000
94	13000	13100
95	10500	94300
96	8300	89200
97	21500	69000
98	86900	70600
99	51200	83100
100	60300	28700
101	66800	91300
102	95400	69400
103	32100	58700
104	28200	90700
105	33900	81000
106	3000	65900
107	33900	29600
108	36700	51100
109	44800	22300
110	7200	18100
111	32300	18300
112	68400	12500
113	41500	38700
114	88200	35900
115	48500	11500
116	13300	54100
117	36800	42400
118	58500	30200
119	99100	9700
120	19800	81700
121	63400	84900
122	14200	63900
123	45500	77700
124	43600	77400
125	24500	58100
126	11200	69100
127	66500	24600
128	3700	45000
129	43600	84300
130	89900	11500
131	98300	9000
132	46100	86600
133	42900	75200
134	69600	46600
135	62900	80700
136	50600	29300
137	1100	52100
138	5000	51500
139	10900	57000
140	67700	87600
141	17100	93000
142	91900	11100
143	42500	77500
144	47000	78300
145	12900	85200
146	50400	18100
147	43900	79900
148	91900	18100
149	46900	82600
150	39000	72900
151	8300	64900
152	46900	66200
153	16100	75900
154	65600	28100
155	9000	68100
156	56300	55500
157	39900	82800
158	15500	61200
159	21300	83700
160	28000	68000
161	47300	68900
162	15300	58600
163	27300	69800
164	19100	65000
165	64500	83000
166	48400	82100
167	38400	37500
168	6500	89000
169	13700	56100
170	43200	78000
171	56100	52300
172	39000	93400
173	48100	23600
174	72500	81800
175	27200	71000
176	99800	7600
177	54400	28200
178	86600	25200
179	35800	67800
180	43900	68700
181	47000	30300
182	63600	80400
183	46100	69000
184	91200	11400
185	40600	82900
186	37200	68300
187	44600	81200
188	37800	75400
189	41200	78000
190	63700	87000
191	95300	18500
192	54100	25400
193	49800	85600
194	53500	30400
195	65200	94800
196	31800	65400
197	11700	83200
198	64800	14400
199	41000	86300
200	37100	62700
201	63400	87200
202	30800	64900
203	23500	97900
204	27100	86500
205	11500	76100
206	55300	75000
207	72300	81300
208	40500	88900
209	57000	76100
210	11400	66000
211	15900	88300
212	46000	69900
213	18500	55900
214	47200	79900
215	32000	64100
216	50800	75400
217	29400	87400
218	26500	79300
219	99900	12500
220	99900	7500
221	66200	72700
222	46400	77000
223	72400	17400
224	60300	26000
225	53000	28600
226	38300	84500
227	81400	81200
228	9600	55400
229	60500	28400
230	13400	62500
231	56800	45400
232	22000	93100
233	16200	79200
DEMAND_SECTION
1	0
2	53
3	64
4	54
5	63
6	45
7	6
8	100
9	63
10	5
11	74
12	87
13	11
14	33
15	63
16	36
17	93
18	28
19	89
20	64
21	8
22	69
23	40
24	65
25	29
26	30
27	19
28	78
29	78
30	55
31	6
32	94
33	25
34	38
35	2
36	69
37	42
38	43
39	94
40	74
41	54
42	93
43	76
44	92
45	49
46	85
47	4
48	12
49	70
50	17
51	82
52	16
53	1
54	51
55	94
56	74
57	56
58	66
59	79
60	88
61	65
62	87
63	62
64	5
65	67
66	78
67	57
68	45
69	82
70	18
71	35
72	88
73	8
74	13
75	37
76	45
77	75
78	70
79	13
80	69
81	59
82	88
83	88
84	23
85	4
86	49
87	67
88	75
89	9
90	94
91	45
92	59
93	100
94	84
95	34
96	18
97	24
98	66
99	71
100	47
101	99
102	75
103	11
104	28
105	8
106	50
107	83
108	44
109	53
110	86
111	97
112	10
113	73
114	27
115	74
116	36
117	85
118	43
119	39
120	25
121	55
122	14
123	30
124	4
125	23
126	16
127	23
128	100
129	20
130	12
131	29
132	5
133	17
134	2
135	93
136	27
137	7
138	16
139	2
140	75
141	8
142	6
143	43
144	18
145	34
146	29
147	37
148	13
149	26
150	25
151	36
152	14
153	45
154	23
155	50
156	55
157	24
158	9
159	11
160	27
161	24
162	21
163	3
164	40
165	76
166	45
167	99
168	29
169	5
170	31
171	84
172	45
173	65
174	75
175	6
176	38
177	42
178	11
179	10
180	12
181	94
182	86
183	45
184	35
185	15
186	35
187	14
188	50
189	20
190	96
191	31
192	6
193	2
194	23
195	85
196	8
197	34
198	7
199	32
200	33
201	57
202	39
203	2
204	8
205	40
206	74
207	94
208	30
209	54
210	2
211	33
212	20
213	47
214	40
215	35
216	64
217	35
218	18
219	43
220	15
221	85
222	43
223	20
224	23
225	10
226	17
227	54
228	41
229	25
230	11
231	23
232	19
233	40
DEPOT_SECTION
1
-1
EOF
