experiment/data/lkh-res/Vrp-Set-X-n233/Vrp-Set-X-n233-lkh/0.lkh1.tour
NAME : 0.2027872.tour
COMMENT : Length = 2027872
COMMENT : Found by LKH-3 [Keld Helsgaun] Tue Apr  9 04:26:20 2024
TYPE : TOUR
DIMENSION : 248
TOUR_SECTION
1
200
215
108
66
117
3
69
5
40
113
244
68
224
47
198
112
31
86
18
6
130
184
142
131
176
220
119
219
191
38
148
26
64
178
114
75
237
183
212
133
143
170
147
187
129
132
193
99
166
149
214
144
216
206
92
248
12
150
188
218
120
233
153
205
25
27
74
106
33
151
155
126
210
34
122
158
246
152
161
105
23
204
217
104
203
232
84
141
13
95
96
45
168
37
10
89
197
145
71
211
159
179
186
14
238
100
229
146
7
85
88
46
115
93
173
136
181
243
73
103
125
213
162
169
116
67
20
128
137
138
228
139
230
164
70
97
175
163
160
202
196
50
245
8
110
24
4
59
83
32
63
236
36
44
98
102
30
80
42
77
48
134
231
234
171
156
58
11
57
91
16
53
21
79
76
223
127
154
118
52
194
247
180
35
222
123
124
189
185
157
226
199
208
172
54
60
195
201
165
242
225
177
192
109
72
39
111
107
81
167
241
41
49
94
87
29
65
9
78
28
235
227
17
90
82
43
2
56
101
240
62
15
209
55
135
182
22
221
239
51
121
190
140
19
61
174
207
-1
EOF
